
  32    4
  10   10   10   10

   0   0   0   0   0   2 2 8 
   3  10  10  10  10   1 3 
   4  10  10  10  10   3 6 5 4 
   9  10  10  10  10   4 31 13 10 9 
   7  10  10  10  10   3 31 13 7 
   6  10  10  10  10   3 31 10 9 
   1  10  10  10  10   2 11 9 
   1  10  10  10  10   3 31 14 12 
   4  10  10  10  10   2 16 12 
   5  10  10  10  10   1 11 
  10  10  10  10  10   2 17 14 
   4  10  10  10  10   1 15 
   2  10  10  10  10   1 14 
   5  10  10  10  10   2 22 16 
   7  10  10  10  10   2 30 17 
   2  10  10  10  10   2 30 18 
   7  10  10  10  10   2 22 18 
   5  10  10  10  10   2 23 19 
   7  10  10  10  10   1 20 
   2  10  10  10  10   2 29 21 
   9  10  10  10  10   3 28 27 24 
   2  10  10  10  10   2 27 24 
   8  10  10  10  10   2 27 26 
   2  10  10  10  10   1 25 
   5  10  10  10  10   1 26 
   3  10  10  10  10   1 32
   6  10  10  10  10   1 32
   4  10  10  10  10   1 32
   3  10  10  10  10   1 32
   7  10  10  10  10   1 32
   6  10  10  10  10   1 32
   0   0   0   0   0   0 
